# read in water data
# delete region where graphite will go
# insert graphite
# equilibrate


# input water box dimensions:
# 0.0 49.22 xlo xhi
# 0.0 49.019635930410494 ylo yhi
# -0.39838199551245523 60.460381995511845 zlo zhi

# graphite dimensions:
# 0.0 10.062000000000001 zlo zhi


variable            TEMP string 230
variable            PRES string 500
variable            NAME string graphite_ML_500atm_long
variable            TCOUPL string 5000.0
variable            PCOUPL string 10000.0
variable            TDAMP string 1000.0
variable            PDAMP string 2500.0

units	   	    real
atom_style 	    atomic
log		    log.eq_${NAME}

variable Z_G equal 10.062
variable Z_LO equal 25
variable Z_HI equal ${Z_LO}+${Z_G}

variable	XDIM string 49.22
variable 	YDIM string 49.019635930410494


################################################
####### Equilibrate Liquid Water #########
################################################

log log.eq_${NAME}

# read in water data
read_data data.liquid_ML_500 group water extra/atom/types 1

# remove area for graphite
region substrate block 0 ${XDIM} 0 ${YDIM} ${Z_LO} ${Z_HI}
delete_atoms region substrate

# Insert substrate
read_data data.graphite add append shift 0.0 0.0 ${Z_LO} group graphite offset 1 0 0 0 0


# Define potential
# CHECK ON THIS %%%%%%%%%%%%
#
pair_style sw
pair_coeff * * MLC.sw mW C


# Delete water and ice atoms that are overlapping
#
delete_atoms overlap 2.5 water graphite

# set timestep
#
timestep 10.0

# Define output
#
compute 1 all msd
thermo 50
thermo_style custom step temp press vol etotal ke pe c_1[4]

# Neighbor lists
#
neigh_modify delay 0 every 1 check yes


# Fix graphite atoms in place
# CHECK ON THIS %%%%%%%%%%%%%%%%%%%%
#
fix 1 graphite setforce 0.0 0.0 0.0
velocity graphite set 0.0 0.0 0.0

# Set fixes
#
fix 2 water momentum 10 linear 1 1 1 rescale
fix 3 all nph z ${PRES} ${PRES} ${PCOUPL} 
fix 4 all temp/csvr ${TEMP} ${TEMP} ${TCOUPL} 837492


# Run 1.0 ns equilibration of water
#
dump 1 all atom 1000 eq.all.${NAME}.dump
run 100000

# Create data file for import to other simulations
#
write_data data.${NAME}


