# read in water data
# delete region where graphite will go
# insert graphite
# equilibrate


# input water box dimensions:
# 0.0 49.22 xlo xhi
# 0.0 49.019635930410494 ylo yhi
# -0.39838199551245523 60.460381995511845 zlo zhi

# graphite dimensions:
# 0.0 10.062000000000001 zlo zhi


variable            TEMP string 245
variable            PRES string -1000
variable            NAME string MLC_T4_1000atm_245K
variable            TCOUPL string 5000.0
variable            PCOUPL string 10000.0
variable            TDAMP string 1000.0
variable            PDAMP string 10000.0

units	   	    real
atom_style 	    atomic
log		    log.eq_${NAME}

variable Z_G equal 10.062
variable Z_LO equal 25
variable Z_HI equal ${Z_LO}+${Z_G}

variable	XDIM string 49.22
variable 	YDIM string 49.019635930410494


################################################
####### Equilibrate Liquid Water #########
################################################

log log.eq_${NAME}

# read in water data
read_data data.liquidML_1000_245K group water extra/atom/types 1

# remove area for graphite
region substrate block 0 ${XDIM} 0 ${YDIM} ${Z_LO} ${Z_HI}
delete_atoms region substrate

# Insert substrate
read_data data.graphite add append shift 0.0 0.0 ${Z_LO} group graphite offset 1 0 0 0 0


# Define potential
# CHECK ON THIS %%%%%%%%%%%%
#
pair_style sw
pair_coeff * * MLC_e.sw mW C


# Delete water and ice atoms that are overlapping
#
delete_atoms overlap 2.5 water graphite

# set timestep
#
timestep 10.0

# Define output
#
compute 1 all msd
compute 2 water temp
thermo 50
thermo_style custom step c_2 press vol etotal ke pe c_1[4]

# Neighbor lists
#
neigh_modify delay 0 every 1 check yes


# Fix graphite atoms in place
# CHECK ON THIS %%%%%%%%%%%%%%%%%%%%
#
fix 1 graphite setforce 0.0 0.0 0.0
velocity graphite set 0.0 0.0 0.0


### NEW FOR TESTING

# Set fixes

#fix             2 water momentum 10 linear 1 1 1 rescale
#fix             3 all nve
#fix             4 water temp/csvr ${TEMP} ${TEMP} 500.0 837493
#fix             5 water press/berendsen z ${PRES} ${PRES} 1000.0 modulus 20000

# Run 0.5 ns equilibration

#timestep 5.0

#dump		    1 all atom 2000 testnve.${NAME}.dump

#reset_timestep  0 

#run	            50000

#write_data		testdata.eq-${NAME}-${TEMP}
#undump          1

#reset_timestep  0 

#unfix           3
#unfix           4
#unfix           5

### END NEW FOR TESTING



# Set fixes
#
fix 2 water momentum 10 linear 1 1 1 rescale
fix 3 water nph z ${PRES} ${PRES} ${PCOUPL} 
fix 4 water temp/csvr ${TEMP} ${TEMP} ${TCOUPL} 837492


# Run 0.25 ns equilibration of water
#
dump 	1 all atom 2000 testnph.${NAME}.dump
run 	25000

unfix           3
unfix           4
undump          1

fix             3 water nve

# Run 0.25 ns equilibration

dump		    1 all atom 2000 testnve.${NAME}.dump
run	            25000

unfix 3
undump 1
fix 3 water nph z ${PRES} ${PRES} ${PCOUPL} 
fix 4 water temp/csvr ${TEMP} ${TEMP} ${TCOUPL} 837492

dump		    1 all atom 2000 eq.${NAME}.dump
run	            200000


# Create data file for import to other simulations
#
write_data data.${NAME}


