# create box with dimensions that match the carbon substrate dimension
# 0.0 49.22 xlo xhi
# 0.0 49.019635930410494 ylo yhi
# 0.0 10.062000000000001 zlo zhi
#
# Create water in the box, constrain the box to expanding only along z axis.



variable            NAME string liquid_MLmW
variable            TEMP string 220
variable            PRES string 1
variable            TCOUPL string 5000.0
variable            PCOUPL string 10000.0
variable            TDAMP string 1000.0
variable            PDAMP string 2500.0

# Box Dimensions
#
variable	XDIM string 49.22
variable 	YDIM string 49.019635930410494
variable	ZDIM string 60.062


## Real units, atomic atom style (no bonded interactions)
#
units               real
atom_style          atomic


################################################
#######    Equilibrate Liquid Water    #########
################################################      

log                 log.eq_${NAME}

# Create simulation box of size 49.22 x 49.019 x 60.06 Angstrom
#
region 	     all block 0 ${XDIM} 0 ${YDIM} 0 ${ZDIM} units box
create_box          1 all 

# fill box with 4096 randomly distributed atoms
# plus ~800 atoms that eill eventually be removed to insert the substrate
#
create_atoms        1 random 4896 63782 all
mass                1 18.015

# Define potential
#
pair_style          sw
pair_coeff          * * MLmW.sw mW

# Run minimization
#
minimize            1.0e-8 1.0e-8 10000 1000

# Add velocity/set timestep
#
velocity            all create ${TEMP} 120598 rot yes dist gaussian
timestep            5.0

# Define output
#
compute	            1 all msd
thermo	            100
thermo_style        custom step temp press vol etotal ke pe c_1[4] density

# Neighbor lists
#
neigh_modify        delay 0 every 1 check yes

# Set fixes
#
fix                 1 all momentum 10 linear 1 1 1 rescale
fix                 2 all nve
fix                 3 all temp/csvr ${TEMP} ${TEMP} 500.0 928347
fix                 4 all press/berendsen z ${PRES} ${PRES} 1000.0 modulus 20000

# Run 0.5 ns equilibration
#
dump                1 all custom 1000 eq.${NAME}.dump id type x y z vx vy vz
run                 100000

undump              1
unfix               2
unfix               3
unfix               4


write_data		data.${NAME}
